(set-logic HORN)
(declare-fun !inv0 (Int Int (Array Int Int) (Array Int Int) (Array Int Int) Int Int Int ) Bool)
(assert (forall ((N@0 Int)(array1@0 (Array Int Int))(L@0 Int)(array2@0 (Array Int Int))(array3@0 (Array Int Int))(i@0 Int)(j@0 Int)(k@0 Int)) (=> (and (> |N@0| 0) (= |L@0| (* 2 |N@0|)) (forall ((k@0 Int)(l@0 Int)) (=> (and (<= 0 |k@0|) (< |k@0| (- |N@0| 1))) (=> (and (<= (+ |k@0| 1) |l@0|) (< |l@0| |N@0|)) (<= (select |array1@0| |k@0|) (select |array1@0| |l@0|))))) (forall ((k@0 Int)(l@0 Int)) (=> (and (<= 0 |k@0|) (< |k@0| (- |N@0| 1))) (=> (and (<= (+ |k@0| 1) |l@0|) (< |l@0| |N@0|)) (<= (select |array2@0| |k@0|) (select |array2@0| |l@0|))))) (= |i@0| 0) (= |j@0| 0) (= |k@0| 0)) (!inv0 |N@0| |L@0| |array1@0| |array2@0| |array3@0| |i@0| |j@0| |k@0|))))
(assert (forall ((N@0 Int)(L@0 Int)(array1@0 (Array Int Int))(array2@0 (Array Int Int))(array3@0 (Array Int Int))(i@0 Int)(j@0 Int)(k@0 Int)) (=> (and (!inv0 |N@0| |L@0| |array1@0| |array2@0| |array3@0| |i@0| |j@0| |k@0|) (not (< |i@0| |L@0|)) (not (forall ((k@0 Int)(l@0 Int)) (=> (and (<= 0 |k@0|) (< |k@0| (- |L@0| 1))) (=> (and (<= (+ |k@0| 1) |l@0|) (< |l@0| |L@0|)) (<= (select |array3@0| |k@0|) (select |array3@0| |l@0|))))))) false)))
(assert (forall ((N@0 Int)(L@0 Int)(array1@0 (Array Int Int))(array2@0 (Array Int Int))(array3@0 (Array Int Int))(i@0 Int)(j@0 Int)(k@0 Int)(i@1 Int)(k@1 Int)(array3@1 (Array Int Int))) (=> (and (!inv0 |N@0| |L@0| |array1@0| |array2@0| |array3@1| |i@0| |j@0| |k@1|) (= |i@1| (+ |i@0| 1)) (< |i@0| |L@0|) (= |j@0| |N@0|) (= |array3@0| (store |array3@1| |i@0| (select |array2@0| |k@1|))) (= |k@0| (+ |k@1| 1))) (!inv0 |N@0| |L@0| |array1@0| |array2@0| |array3@0| |i@1| |j@0| |k@0|))))
(assert (forall ((N@0 Int)(L@0 Int)(array1@0 (Array Int Int))(array2@0 (Array Int Int))(array3@0 (Array Int Int))(i@0 Int)(j@0 Int)(k@0 Int)(i@1 Int)(array3@1 (Array Int Int))(j@1 Int)) (=> (and (!inv0 |N@0| |L@0| |array1@0| |array2@0| |array3@1| |i@0| |j@1| |k@0|) (= |i@1| (+ |i@0| 1)) (< |i@0| |L@0|) (not (= |j@1| |N@0|)) (not (= |k@0| |N@0|)) (<= (select |array1@0| |j@1|) (select |array2@0| |k@0|)) (= |array3@0| (store |array3@1| |i@0| (select |array1@0| |j@1|))) (= |j@0| (+ |j@1| 1))) (!inv0 |N@0| |L@0| |array1@0| |array2@0| |array3@0| |i@1| |j@0| |k@0|))))
(assert (forall ((N@0 Int)(L@0 Int)(array1@0 (Array Int Int))(array2@0 (Array Int Int))(array3@0 (Array Int Int))(i@0 Int)(j@0 Int)(k@0 Int)(i@1 Int)(array3@1 (Array Int Int))(j@1 Int)) (=> (and (!inv0 |N@0| |L@0| |array1@0| |array2@0| |array3@1| |i@0| |j@1| |k@0|) (= |i@1| (+ |i@0| 1)) (< |i@0| |L@0|) (not (= |j@1| |N@0|)) (= |k@0| |N@0|) (= |array3@0| (store |array3@1| |i@0| (select |array1@0| |j@1|))) (= |j@0| (+ |j@1| 1))) (!inv0 |N@0| |L@0| |array1@0| |array2@0| |array3@0| |i@1| |j@0| |k@0|))))
(assert (forall ((N@0 Int)(L@0 Int)(array1@0 (Array Int Int))(array2@0 (Array Int Int))(array3@0 (Array Int Int))(i@0 Int)(j@0 Int)(k@0 Int)(i@1 Int)(array3@1 (Array Int Int))(k@1 Int)) (=> (and (!inv0 |N@0| |L@0| |array1@0| |array2@0| |array3@1| |i@0| |j@0| |k@1|) (= |i@1| (+ |i@0| 1)) (< |i@0| |L@0|) (not (= |j@0| |N@0|)) (not (= |k@1| |N@0|)) (not (<= (select |array1@0| |j@0|) (select |array2@0| |k@1|))) (= |array3@0| (store |array3@1| |i@0| (select |array2@0| |k@1|))) (= |k@0| (+ |k@1| 1))) (!inv0 |N@0| |L@0| |array1@0| |array2@0| |array3@0| |i@1| |j@0| |k@0|))))
(check-sat)